p edge 95 950 78
e 16 22
e 16 15
e 16 82
e 16 95
e 16 2
e 16 76
e 16 25
e 16 52
e 16 38
e 16 80
e 16 89
e 16 75
e 16 93
e 16 88
e 16 42
e 16 28
e 16 55
e 16 23
e 16 59
e 16 36
e 22 47
e 22 19
e 22 50
e 22 31
e 22 73
e 22 68
e 22 12
e 22 72
e 22 40
e 22 67
e 22 44
e 22 15
e 22 39
e 22 43
e 22 29
e 22 18
e 22 71
e 22 13
e 22 52
e 25 89
e 25 88
e 25 37
e 25 18
e 25 2
e 25 36
e 25 45
e 25 26
e 25 5
e 25 92
e 25 91
e 25 59
e 25 63
e 25 72
e 25 81
e 25 90
e 25 71
e 25 39
e 25 52
e 89 36
e 89 14
e 89 17
e 89 77
e 89 69
e 89 88
e 89 1
e 89 61
e 89 34
e 89 29
e 89 18
e 89 73
e 89 46
e 89 49
e 89 79
e 89 3
e 89 71
e 89 82
e 37 54
e 37 76
e 37 36
e 37 17
e 37 20
e 37 80
e 37 61
e 37 47
e 37 51
e 37 69
e 37 78
e 37 64
e 37 45
e 37 40
e 37 32
e 37 24
e 37 82
e 37 77
e 37 86
e 54 32
e 54 21
e 54 24
e 54 82
e 54 68
e 54 95
e 54 63
e 54 35
e 54 76
e 54 28
e 54 30
e 54 3
e 54 84
e 54 93
e 54 20
e 54 31
e 54 70
e 54 73
e 54 7
e 36 19
e 36 66
e 36 70
e 36 11
e 36 83
e 36 46
e 36 33
e 36 73
e 36 15
e 36 77
e 36 40
e 36 49
e 36 58
e 36 29
e 36 18
e 36 43
e 27 31
e 27 8
e 27 73
e 27 91
e 27 6
e 27 63
e 27 72
e 27 49
e 27 58
e 27 9
e 27 34
e 27 7
e 27 84
e 27 10
e 27 79
e 27 88
e 27 56
e 27 74
e 27 60
e 27 24
e 31 19
e 31 94
e 31 75
e 31 93
e 31 79
e 31 88
e 31 56
e 31 42
e 31 20
e 31 95
e 31 40
e 31 49
e 31 35
e 31 53
e 31 39
e 31 43
e 31 24
e 14 79
e 14 74
e 14 60
e 14 69
e 14 64
e 14 32
e 14 23
e 14 41
e 14 1
e 14 68
e 14 95
e 14 67
e 14 26
e 14 62
e 14 10
e 14 43
e 14 13
e 14 6
e 14 94
e 8 17
e 8 92
e 8 77
e 8 6
e 8 45
e 8 67
e 8 38
e 8 10
e 8 85
e 8 94
e 8 80
e 8 93
e 8 88
e 8 47
e 8 65
e 8 2
e 8 69
e 8 55
e 8 32
e 68 78
e 68 18
e 68 35
e 68 66
e 68 73
e 68 41
e 68 30
e 68 72
e 68 90
e 68 33
e 68 17
e 68 58
e 68 20
e 68 9
e 68 39
e 68 53
e 68 4
e 78 91
e 78 24
e 78 44
e 78 94
e 78 69
e 78 53
e 78 42
e 78 72
e 78 7
e 78 79
e 78 88
e 78 83
e 78 92
e 78 2
e 78 21
e 78 51
e 78 64
e 78 11
e 48 72
e 48 81
e 48 67
e 48 52
e 48 10
e 48 32
e 48 35
e 48 61
e 48 70
e 48 56
e 48 65
e 48 74
e 48 83
e 48 51
e 48 60
e 48 50
e 48 6
e 48 82
e 48 91
e 48 95
e 72 29
e 72 32
e 72 62
e 72 51
e 72 65
e 72 57
e 72 71
e 72 33
e 72 63
e 72 66
e 72 39
e 72 15
e 72 76
e 72 26
e 19 15
e 19 17
e 19 40
e 19 49
e 19 1
e 19 35
e 19 57
e 19 11
e 19 71
e 19 61
e 19 56
e 19 65
e 19 33
e 19 69
e 19 46
e 19 64
e 19 23
e 6 66
e 6 56
e 6 65
e 6 74
e 6 83
e 6 28
e 6 46
e 6 17
e 6 7
e 6 5
e 6 86
e 6 81
e 6 62
e 6 71
e 6 21
e 6 11
e 66 70
e 66 79
e 66 74
e 66 92
e 66 2
e 66 26
e 66 12
e 66 18
e 66 29
e 66 10
e 66 82
e 66 62
e 66 51
e 66 77
e 66 30
e 66 42
e 18 95
e 18 43
e 18 29
e 18 38
e 18 24
e 18 90
e 18 85
e 18 56
e 18 74
e 18 51
e 18 60
e 18 28
e 18 87
e 18 82
e 81 82
e 81 91
e 81 21
e 81 32
e 81 13
e 81 71
e 81 33
e 81 84
e 81 74
e 81 87
e 81 47
e 81 20
e 81 9
e 81 12
e 81 23
e 81 64
e 81 75
e 56 94
e 56 80
e 56 33
e 56 28
e 56 9
e 56 39
e 56 83
e 56 29
e 56 59
e 56 10
e 56 21
e 56 24
e 56 35
e 56 90
e 94 28
e 94 85
e 94 20
e 94 53
e 94 4
e 94 67
e 94 10
e 94 32
e 94 62
e 94 51
e 94 13
e 94 24
e 94 90
e 94 41
e 94 55
e 91 40
e 91 5
e 91 84
e 91 46
e 91 79
e 91 92
e 91 33
e 91 44
e 91 55
e 91 77
e 91 1
e 91 53
e 91 95
e 91 45
e 91 7
e 7 49
e 7 85
e 7 53
e 7 11
e 7 20
e 7 15
e 7 5
e 7 84
e 7 61
e 7 74
e 7 42
e 7 41
e 7 40
e 7 82
e 7 90
e 49 10
e 49 2
e 49 43
e 49 35
e 49 86
e 49 38
e 49 67
e 49 57
e 49 52
e 49 47
e 49 1
e 49 34
e 49 51
e 49 26
e 47 93
e 47 88
e 47 74
e 47 9
e 47 20
e 47 64
e 47 15
e 47 45
e 47 34
e 47 90
e 47 43
e 47 5
e 47 71
e 47 38
e 47 52
e 95 62
e 95 92
e 95 26
e 95 84
e 95 79
e 95 93
e 95 55
e 95 39
e 95 67
e 95 23
e 95 4
e 95 34
e 95 75
e 30 60
e 30 55
e 30 50
e 30 45
e 30 92
e 30 59
e 30 67
e 30 53
e 30 3
e 30 85
e 30 80
e 30 12
e 30 75
e 30 84
e 30 65
e 30 83
e 30 4
e 60 69
e 60 64
e 60 44
e 60 50
e 60 1
e 60 23
e 60 86
e 60 34
e 60 90
e 60 76
e 60 21
e 60 51
e 60 43
e 60 79
e 60 88
e 34 39
e 34 57
e 34 85
e 34 80
e 34 83
e 34 42
e 34 46
e 34 11
e 34 87
e 34 59
e 34 86
e 34 1
e 34 58
e 34 44
e 39 65
e 39 64
e 39 3
e 39 92
e 39 87
e 39 82
e 39 59
e 39 17
e 39 63
e 39 28
e 39 9
e 39 23
e 85 75
e 85 9
e 85 50
e 85 12
e 85 1
e 85 59
e 85 70
e 85 62
e 85 92
e 85 26
e 85 57
e 85 74
e 85 86
e 85 55
e 26 35
e 26 5
e 26 71
e 26 61
e 26 65
e 26 74
e 26 42
e 26 46
e 26 83
e 26 87
e 26 12
e 26 63
e 26 58
e 35 92
e 35 10
e 35 77
e 35 90
e 35 67
e 35 53
e 35 3
e 35 33
e 35 1
e 35 69
e 35 4
e 35 50
e 3 42
e 3 69
e 3 4
e 3 13
e 3 73
e 3 59
e 3 40
e 3 58
e 3 43
e 3 20
e 3 38
e 3 10
e 3 5
e 3 71
e 3 93
e 42 17
e 42 12
e 42 65
e 42 55
e 42 50
e 42 59
e 42 63
e 42 67
e 42 44
e 42 62
e 42 57
e 42 11
e 57 17
e 57 29
e 57 87
e 57 12
e 57 2
e 57 77
e 57 76
e 57 41
e 57 80
e 57 61
e 57 65
e 57 9
e 57 69
e 57 4
e 40 77
e 40 86
e 40 90
e 40 76
e 40 80
e 40 24
e 40 43
e 40 28
e 40 83
e 40 69
e 40 87
e 40 2
e 32 87
e 32 77
e 32 90
e 32 44
e 32 71
e 32 52
e 32 28
e 32 20
e 32 1
e 32 80
e 32 51
e 32 2
e 87 43
e 87 77
e 87 86
e 87 20
e 87 1
e 87 70
e 87 23
e 87 53
e 87 64
e 87 65
e 87 93
e 87 10
e 15 20
e 15 29
e 15 75
e 15 28
e 15 23
e 15 45
e 15 92
e 15 73
e 15 82
e 15 44
e 15 53
e 15 71
e 15 21
e 11 64
e 11 23
e 11 13
e 11 17
e 11 12
e 11 10
e 11 2
e 11 86
e 11 63
e 11 62
e 11 75
e 11 88
e 11 1
e 64 41
e 64 43
e 64 5
e 64 80
e 64 79
e 64 53
e 64 17
e 64 51
e 64 77
e 64 67
e 44 61
e 44 70
e 44 74
e 44 10
e 44 50
e 44 21
e 44 38
e 44 77
e 44 17
e 44 1
e 44 4
e 44 75
e 61 9
e 61 50
e 61 23
e 61 53
e 61 45
e 61 73
e 61 29
e 61 21
e 61 13
e 61 43
e 61 80
e 61 41
e 69 52
e 69 93
e 69 55
e 69 70
e 69 79
e 69 23
e 69 82
e 69 77
e 69 76
e 70 86
e 70 80
e 70 20
e 70 53
e 70 29
e 70 75
e 70 84
e 70 93
e 70 2
e 70 51
e 70 13
e 70 24
e 75 28
e 75 20
e 75 50
e 75 12
e 75 73
e 75 93
e 75 21
e 75 52
e 75 43
e 75 65
e 52 92
e 52 50
e 52 4
e 52 29
e 52 53
e 52 71
e 52 41
e 52 13
e 52 24
e 52 93
e 52 79
e 92 5
e 92 33
e 92 38
e 92 58
e 92 41
e 92 93
e 92 29
e 92 21
e 17 38
e 17 46
e 17 9
e 17 45
e 17 67
e 17 10
e 17 90
e 17 5
e 67 59
e 67 24
e 67 38
e 67 79
e 67 88
e 67 55
e 67 23
e 67 4
e 80 12
e 80 4
e 80 84
e 80 83
e 80 2
e 80 21
e 80 62
e 80 38
e 76 51
e 76 77
e 76 86
e 76 46
e 76 10
e 76 41
e 76 74
e 76 63
e 76 9
e 76 84
e 76 88
e 76 53
e 29 58
e 29 43
e 29 10
e 29 21
e 29 13
e 29 84
e 29 65
e 82 51
e 82 46
e 82 38
e 82 79
e 82 90
e 82 20
e 82 12
e 82 45
e 41 46
e 41 55
e 41 50
e 41 59
e 41 63
e 41 90
e 41 58
e 41 43
e 41 2
e 41 24
e 46 77
e 46 63
e 46 53
e 46 62
e 46 23
e 46 10
e 46 93
e 46 65
e 46 50
e 55 84
e 55 93
e 55 83
e 55 9
e 55 50
e 55 59
e 55 77
e 55 2
e 55 38
e 53 84
e 53 93
e 53 65
e 53 62
e 28 84
e 28 93
e 28 74
e 28 83
e 28 50
e 28 45
e 28 86
e 28 63
e 28 58
e 23 33
e 23 65
e 23 12
e 23 1
e 23 63
e 23 43
e 63 79
e 63 59
e 63 62
e 63 13
e 63 5
e 63 86
e 63 9
e 79 20
e 79 9
e 79 90
e 79 5
e 79 84
e 77 33
e 77 9
e 77 4
e 86 21
e 86 73
e 86 5
e 86 33
e 86 20
e 86 83
e 86 45
e 74 88
e 74 83
e 74 12
e 74 59
e 74 13
e 74 38
e 88 20
e 88 9
e 88 12
e 88 21
e 88 51
e 88 13
e 88 24
e 84 9
e 84 50
e 84 1
e 84 73
e 84 33
e 24 73
e 24 58
e 24 71
e 24 93
e 24 83
e 24 45
e 93 38
e 93 71
e 20 83
e 20 10
e 33 65
e 33 73
e 33 2
e 33 90
e 33 62
e 33 38
e 33 5
e 65 58
e 65 10
e 65 21
e 4 38
e 4 5
e 4 1
e 4 9
e 4 45
e 4 13
e 4 73
e 4 62
e 38 73
e 38 43
e 38 5
e 5 58
e 5 12
e 5 90
e 5 13
e 58 51
e 58 73
e 58 90
e 58 71
e 58 50
e 58 12
e 58 1
e 83 45
e 83 21
e 83 62
e 83 13
e 50 45
e 50 21
e 50 71
e 51 59
e 51 62
e 51 12
e 51 2
e 59 13
e 59 73
e 59 12
e 59 2
e 59 45
e 9 13
e 9 73
e 43 21
e 43 13
e 90 10
e 90 45
e 73 45
e 21 45
e 13 62
e 62 2
e 62 1
e 12 71
e 1 71
e 1 2
e 2 71
